750
[154,157,163,166,170,172,176,177,183,188,193,195,196,200,202,205,218,222,224,228,240,241,247,249,252,257,267,276,279,280,285,289,296,307,310,312,313,320,324,325,330,331,343,344,349,353,354,358,363,365,367,368,372,376,378,379,391,395,400,411,412,414,420,423,430,432,433,440,457,471,478,484,485,491,496,500,502,506,509,518,520,526,540,548,555,562,566,574,576,579,588,592,593,596]
[1,1,1,1,1,1,1,1,1,2,1,1,1,1,1,1,1,1,1,1,1,1,1,1,1,1,1,1,1,2,1,1,1,1,1,1,1,2,1,1,1,1,1,1,2,1,1,1,1,1,1,1,1,1,1,1,1,1,1,1,1,2,1,1,1,1,1,1,2,1,1,1,1,1,1,1,1,1,1,1,1,1,1,1,1,1,1,1,1,1,1,1,1,1]
